100
30
14
1
18
6
8
12
2
9
2
14
31
31
7
3
31
31
14
32
9
20
31
3
26
5
2
1
25
1
14
20
17
8
18
7
10
1
15
13
22
10
2
4
14
32
9
12
4
2
32
32
9
21
9
1
31
5
32
4
31
24
32
14
32
19
31
1
31
8
32
30
3
21
9
3
6
2
16
3
15
4
1
22
30
1
6
6
4
4
31
2
17
5
8
31
7
28
1
3
2
2